int: k = 3;
set of int: sets = 1 .. k;
int: n = 9;
set of int: positions = 1 .. (n * k);
set of int: num_set = 1 .. (n * k);
array[positions] of var num_set: Num;
array[num_set] of var positions: Pos;
set of int: numbers = 1 .. n;
output 
  [ if j = 1 then "\n" ++ (show(i) ++ "s at ") else ", " endif ++ 
  show(Pos[(k * (i - 1)) + j]) | i in 1 .. n, j in 1 .. k ] ++ [ "\n" ];
